(set-info :source  loris-7.ddns.comp.nus.edu.sg/~project/hip/) 
;Variables declarations
(declare-fun v_bool_28_1525_primed () Int)
(declare-fun n () Int)
(declare-fun v_bool_24_1526_primed () Int)
(declare-fun bg () Int)
(declare-fun sm () Int)
(declare-fun c () Int)
(declare-fun xs_primed () Int)
(declare-fun xs () Int)
(declare-fun xsval_primed () Int)
(declare-fun d_1748 () Int)
(declare-fun xsnext_1799 () Int)
(declare-fun p_1749 () Int)
(declare-fun sm_1745 () Int)
(declare-fun bg_1746 () Int)
(declare-fun flted_9_1747 () Int)
(declare-fun sm_1793 () Int)
(declare-fun c_primed () Int)
(declare-fun bg_1794 () Int)
(declare-fun n_1792 () Int)
(declare-fun sm_1800 () Int)
(declare-fun c_1801 () Int)
(declare-fun a_1804 () Int)
(declare-fun xsnext_primed () Int)
(declare-fun c_1802 () Int)
(declare-fun bg_1803 () Int)
(declare-fun b_1805 () Int)
(declare-fun res () Int)
;Relations declarations
;Axioms assertions
;Antecedent
(assert (not (> v_bool_28_1525_primed 0)))
(assert (< d_1748 c_primed))
(assert (= (+ flted_9_1747 1) n))
(assert (<= sm d_1748))
(assert (< d_1748 bg))
(assert (= sm_1745 sm))
(assert (= bg_1746 bg))
(assert (not (> v_bool_24_1526_primed 0)))
(assert (> xs_primed 0))
(assert (<= c bg))
(assert (<= sm c))
(assert (= c_primed c))
(assert (= xs_primed xs))
(assert (= xsval_primed d_1748))
(assert (= xsnext_1799 p_1749))
(assert (= n_1792 flted_9_1747))
(assert (= sm_1793 sm_1745))
(assert (= bg_1794 bg_1746))
(assert (<= 0 flted_9_1747))
(assert (= n_1792 (+ b_1805 a_1804)))
(assert (= sm_1800 sm_1793))
(assert (= c_1801 c_primed))
(assert (= c_1802 c_primed))
(assert (= bg_1803 bg_1794))
(assert (<= 0 n_1792))
(assert (or (and (< xsnext_primed 1) (= a_1804 0)) (and (and (< sm_1800 c_1801) (<= 1 a_1804)) (> xsnext_primed 0))))
(assert (or (and (< res 1) (= b_1805 0)) (and (and (< c_1802 bg_1803) (<= 1 b_1805)) (> res 0))))
;Negation of Consequence
(assert (not false))
(check-sat)